50 19763
5556 10505 7709 4437 6687 3795 6132 6139 4961 7596 7434 8816 8298 8540 9716 7986 4490 9945 7515 3385 2352 8618 7300 4730 10513 8150 9581 10409 3025 3290 4581 1691 7906 9241 10969 10265 10150 1645 1479 2112 8578 9948 4544 1430 9121 3175 5919 10439 7825 6524 
4556 9505 6709 3437 5687 2795 5132 5139 3961 6596 6434 7816 7298 7540 8716 6986 3490 8945 6515 2385 1352 7618 6300 3730 9513 7150 8581 9409 2025 2290 3581 691 6906 8241 9969 9265 9150 645 479 1112 7578 8948 3544 430 8121 2175 4919 9439 6825 5524 
